(set-logic QF_S)
(declare-fun var0 () String)
(declare-fun var1 () String)
(declare-fun var2 () String)
(declare-fun var3 () String)
(declare-fun var4 () String)
(declare-fun var5 () String)
(declare-fun var6 () String)
(declare-fun var7 () String)
(declare-fun var8 () String)
(declare-fun var9 () String)
(declare-fun var10 () String)
(declare-fun var11 () String)
(declare-fun var12 () String)
(declare-fun var13 () String)
(declare-fun var14 () String)
(declare-fun var15 () String)
(declare-fun var16 () String)
(declare-fun var17 () String)
(declare-fun var18 () String)
(declare-fun var19 () String)
(declare-fun var20 () String)
(declare-fun var21 () String)
(declare-fun var22 () String)
(declare-fun var23 () String)
(declare-fun var24 () String)
(declare-fun var25 () String)
(declare-fun var26 () String)
(declare-fun var27 () String)
(declare-fun var28 () String)
(declare-fun var29 () String)
(declare-fun var30 () String)
(declare-fun var31 () String)
(declare-fun var32 () String)
(declare-fun var33 () String)
(declare-fun var34 () String)
(declare-fun var35 () String)
(declare-fun var36 () String)
(declare-fun var37 () String)
(declare-fun var38 () String)
(declare-fun var39 () String)
(declare-fun var40 () String)
(declare-fun var41 () String)
(declare-fun var42 () String)
(declare-fun var43 () String)
(declare-fun var44 () String)
(declare-fun var45 () String)
(declare-fun var46 () String)
(declare-fun var47 () String)
(declare-fun var48 () String)
(declare-fun var49 () String)
(declare-fun var50 () String)
(declare-fun var51 () String)
(declare-fun var52 () String)
(declare-fun var53 () String)
(declare-fun var54 () String)
(declare-fun var55 () String)
(declare-fun var56 () String)
(declare-fun var57 () String)
(declare-fun var58 () String)
(declare-fun var59 () String)
(declare-fun var60 () String)
(assert (= var0 (str.++ var1 var2)))
(assert (= var2 (str.++ var3 var4)))
(assert (= var4 (str.++ var5 var6)))
(assert (= var6 (str.++ var7 var8)))
(assert (= var8 (str.++ var9 var10)))
(assert (= var10 (str.++ var11 var12)))
(assert (= var12 (str.++ var13 var14)))
(assert (= var14 (str.++ var15 var16)))
(assert (= var16 (str.++ var17 var18)))
(assert (= var18 (str.++ var19 var20)))
(assert (= var20 (str.++ var21 var22)))
(assert (= var22 (str.++ var23 var24)))
(assert (= var24 (str.++ var25 var26)))
(assert (= var26 (str.++ var27 var28)))
(assert (= var28 (str.++ var29 var30)))
(assert (= var30 (str.++ var31 var32)))
(assert (= var32 (str.++ var33 var34)))
(assert (= var34 (str.++ var35 var36)))
(assert (= var36 (str.++ var37 var38)))
(assert (= var38 (str.++ var39 var40)))
(assert (= var40 (str.++ var41 var42)))
(assert (= var42 (str.++ var43 var44)))
(assert (= var44 (str.++ var45 var46)))
(assert (= var46 (str.++ var47 var48)))
(assert (= var48 (str.++ var49 var50)))
(assert (= var50 (str.++ var51 var52)))
(assert (= var52 (str.++ var53 var54)))
(assert (= var54 (str.++ var55 var56)))
(assert (= var56 (str.++ var57 var58)))
(assert (= var58 (str.++ var59 var60)))
(assert (= var0 "solution"))
(assert (= ">" (str.at var55 373)))
(assert (= "G" (str.at var43 991)))
(assert (= "o" (str.at var0 313)))
(assert (= "b" (str.at var51 844)))
(assert (= "X" (str.at var5 912)))
(assert (= "O" (str.at var53 726)))
(assert (= "." (str.at var23 324)))
(assert (= "E" (str.at var6 91)))
(assert (= "W" (str.at var49 456)))
(assert (= "|" (str.at var41 827)))
(assert (= "Z" (str.at var5 654)))
(assert (= "c" (str.at var27 2)))
(assert (= "2" (str.at var33 6)))
(assert (= "y" (str.at var32 602)))
(assert (= "F" (str.at var21 510)))
(assert (= "X" (str.at var28 548)))
(assert (= "E" (str.at var24 738)))
(assert (= "?" (str.at var51 118)))
(assert (= "\\" (str.at var22 132)))
(assert (= "R" (str.at var21 502)))
(assert (= "!" (str.at var51 232)))
(assert (= "6" (str.at var12 430)))
(assert (= "]" (str.at var12 721)))
(assert (= "+" (str.at var0 32)))
(assert (= "B" (str.at var37 519)))
(assert (= "O" (str.at var38 435)))
(assert (= "y" (str.at var19 110)))
(assert (= "f" (str.at var34 148)))
(assert (= "@" (str.at var52 107)))
(assert (= ")" (str.at var55 24)))
(assert (= "d" (str.at var29 994)))
(assert (= "(" (str.at var50 316)))
(assert (= "N" (str.at var36 453)))
(assert (= """" (str.at var39 468)))
(assert (= "6" (str.at var59 461)))
(assert (= "5" (str.at var19 685)))
(assert (= "2" (str.at var17 735)))
(assert (= "n" (str.at var12 337)))
(assert (= "j" (str.at var37 414)))
(assert (= "7" (str.at var3 347)))
(assert (= "o" (str.at var36 46)))
(assert (= "S" (str.at var42 688)))
(assert (= "]" (str.at var20 172)))
(assert (= "]" (str.at var53 378)))
(assert (= "p" (str.at var49 405)))
(assert (= "L" (str.at var11 499)))
(assert (= "Z" (str.at var43 87)))
(assert (= "1" (str.at var10 804)))
(assert (= "1" (str.at var9 766)))
(assert (= "p" (str.at var55 464)))
(assert (= "#" (str.at var56 418)))
(assert (= "&" (str.at var14 800)))
(assert (= "9" (str.at var60 605)))
(assert (= "1" (str.at var16 774)))
(assert (= "s" (str.at var3 590)))
(assert (= "C" (str.at var9 870)))
(assert (= "8" (str.at var47 421)))
(assert (= "n" (str.at var45 364)))
(assert (= "3" (str.at var38 44)))
(assert (= "r" (str.at var21 327)))
(assert (= "." (str.at var44 754)))
(assert (= "k" (str.at var39 388)))
(assert (= "1" (str.at var23 314)))
(assert (= "N" (str.at var28 736)))
(assert (= "-" (str.at var43 604)))
(assert (= "h" (str.at var33 957)))
(assert (= "J" (str.at var23 40)))
(assert (= "L" (str.at var45 221)))
(assert (= "D" (str.at var10 353)))
(assert (= "J" (str.at var30 110)))
(assert (= "`" (str.at var5 761)))
(assert (= "a" (str.at var51 187)))
(assert (= "*" (str.at var4 696)))
(assert (= "3" (str.at var36 656)))
(assert (= "^" (str.at var3 330)))
(assert (= ")" (str.at var2 424)))
(assert (= "7" (str.at var22 359)))
(assert (= "m" (str.at var32 512)))
(assert (= "d" (str.at var12 901)))
(assert (= "e" (str.at var28 31)))
(assert (= "!" (str.at var49 257)))
(assert (= "8" (str.at var60 336)))
(assert (= "{" (str.at var7 848)))
(assert (= "X" (str.at var17 968)))
(assert (= "8" (str.at var47 204)))
(assert (= "@" (str.at var39 376)))
(assert (= "=" (str.at var47 771)))
(assert (= "R" (str.at var19 945)))
(assert (= "+" (str.at var21 668)))
(assert (= "w" (str.at var60 419)))
(assert (= "h" (str.at var23 848)))
(assert (= "O" (str.at var28 444)))
(assert (= "`" (str.at var44 766)))
(assert (= "1" (str.at var25 73)))
(assert (= "w" (str.at var46 946)))
(assert (= "`" (str.at var19 42)))
(assert (= "v" (str.at var38 244)))
(assert (= "s" (str.at var33 862)))
(assert (= "7" (str.at var3 836)))
(assert (= ">" (str.at var40 389)))
(assert (= "$" (str.at var51 728)))
(assert (= "=" (str.at var18 939)))
(assert (= "T" (str.at var19 721)))
(assert (= "!" (str.at var22 497)))
(assert (= "t" (str.at var4 852)))
(assert (= "G" (str.at var56 643)))
(assert (= "\\" (str.at var56 162)))
(assert (= "m" (str.at var15 688)))
(assert (= "~" (str.at var32 256)))
(assert (= "s" (str.at var52 382)))
(assert (= "E" (str.at var22 765)))
(assert (= "4" (str.at var17 973)))
(assert (= "k" (str.at var17 766)))
(assert (= "<" (str.at var25 56)))
(assert (= "D" (str.at var54 99)))
(assert (= "c" (str.at var52 224)))
(assert (= "e" (str.at var18 38)))
(assert (= "~" (str.at var45 537)))
(assert (= "L" (str.at var41 949)))
(assert (= "|" (str.at var27 336)))
(assert (= "d" (str.at var27 349)))
(assert (= "'" (str.at var40 589)))
(assert (= "X" (str.at var55 768)))
(assert (= "]" (str.at var26 777)))
(assert (= "F" (str.at var7 872)))
(assert (= "B" (str.at var44 400)))
(assert (= "&" (str.at var38 901)))
(assert (= "I" (str.at var27 346)))
(assert (= "I" (str.at var14 691)))
(assert (= "A" (str.at var29 908)))
(assert (= ";" (str.at var37 918)))
(assert (= "F" (str.at var60 259)))
(assert (= "]" (str.at var16 453)))
(assert (= "e" (str.at var38 57)))
(assert (= "+" (str.at var33 963)))
(assert (= "\\" (str.at var34 600)))
(assert (= "Q" (str.at var41 189)))
(assert (= "b" (str.at var6 74)))
(assert (= "O" (str.at var2 282)))
(assert (= "0" (str.at var24 933)))
(assert (= "5" (str.at var59 991)))
(assert (= "t" (str.at var56 929)))
(assert (= "q" (str.at var2 901)))
(assert (= "#" (str.at var8 131)))
(assert (= "j" (str.at var9 638)))
(assert (= "R" (str.at var48 851)))
(assert (= "," (str.at var21 982)))
(assert (= "p" (str.at var2 331)))
(assert (= "-" (str.at var49 378)))
(assert (= "N" (str.at var12 398)))
(assert (= "O" (str.at var44 628)))
(assert (= "+" (str.at var7 773)))
(assert (= "M" (str.at var29 985)))
(assert (= "v" (str.at var38 812)))
(assert (= "]" (str.at var8 756)))
(assert (= "I" (str.at var39 765)))
(assert (= "C" (str.at var24 997)))
(assert (= "=" (str.at var55 797)))
(assert (= ">" (str.at var34 827)))
(assert (= "@" (str.at var58 992)))
(assert (= "z" (str.at var22 310)))
(assert (= "0" (str.at var11 912)))
(assert (= "-" (str.at var45 933)))
(assert (= "6" (str.at var29 188)))
(assert (= "w" (str.at var34 733)))
(assert (= ")" (str.at var28 954)))
(assert (= "Q" (str.at var20 109)))
(assert (= "~" (str.at var0 451)))
(assert (= "@" (str.at var51 414)))
(assert (= "_" (str.at var11 437)))
(assert (= "l" (str.at var41 141)))
(assert (= "N" (str.at var11 140)))
(assert (= "X" (str.at var53 548)))
(assert (= "n" (str.at var46 820)))
(assert (= "u" (str.at var12 135)))
(assert (= "%" (str.at var27 272)))
(assert (= "a" (str.at var8 93)))
(assert (= "]" (str.at var26 329)))
(assert (= "g" (str.at var41 760)))
(assert (= "n" (str.at var47 460)))
(assert (= "e" (str.at var31 705)))
(assert (= "P" (str.at var6 274)))
(assert (= "j" (str.at var16 975)))
(assert (= "Q" (str.at var37 866)))
(assert (= ":" (str.at var56 841)))
(assert (= "!" (str.at var13 679)))
(assert (= "C" (str.at var13 191)))
(assert (= "H" (str.at var38 837)))
(assert (= "h" (str.at var3 345)))
(assert (= "g" (str.at var28 495)))
(assert (= "}" (str.at var37 726)))
(assert (= "U" (str.at var4 147)))
(assert (= "=" (str.at var56 122)))
(assert (= "<" (str.at var29 979)))
(assert (= "}" (str.at var36 838)))
(assert (= "i" (str.at var0 582)))
(assert (= "p" (str.at var9 169)))
(assert (= "C" (str.at var25 658)))
(assert (= ")" (str.at var40 174)))
(assert (= "Z" (str.at var1 313)))
(assert (= "6" (str.at var34 181)))
(assert (= "K" (str.at var36 216)))
(assert (= "c" (str.at var17 829)))
(assert (= "}" (str.at var26 589)))
(assert (= "v" (str.at var18 377)))
(assert (= "m" (str.at var9 831)))
(assert (= "V" (str.at var3 777)))
(assert (= "u" (str.at var17 666)))
(assert (= ")" (str.at var15 877)))
(assert (= "t" (str.at var55 225)))
(assert (= "%" (str.at var49 631)))
(assert (= "0" (str.at var26 912)))
(assert (= "[" (str.at var18 220)))
(assert (= "," (str.at var12 233)))
(assert (= "e" (str.at var60 938)))
(assert (= ";" (str.at var40 555)))
(assert (= "Y" (str.at var36 545)))
(assert (= "O" (str.at var19 842)))
(assert (= "E" (str.at var43 279)))
(assert (= "w" (str.at var4 519)))
(assert (= "/" (str.at var44 943)))
(assert (= "k" (str.at var43 534)))
(assert (= "6" (str.at var20 564)))
(assert (= "j" (str.at var6 354)))
(assert (= "7" (str.at var53 612)))
(assert (= "}" (str.at var56 312)))
(assert (= "8" (str.at var30 592)))
(assert (= ";" (str.at var34 583)))
(assert (= "{" (str.at var43 726)))
(assert (= "h" (str.at var31 664)))
(assert (= "0" (str.at var28 321)))
(assert (= "#" (str.at var39 39)))
(assert (= "6" (str.at var39 34)))
(assert (= ">" (str.at var48 683)))
(assert (= "J" (str.at var19 544)))
(assert (= "}" (str.at var18 955)))
(assert (= """" (str.at var52 443)))
(assert (= "S" (str.at var54 814)))
(assert (= "}" (str.at var54 265)))
(assert (= "." (str.at var47 981)))
(assert (= "x" (str.at var7 690)))
(assert (= "X" (str.at var2 956)))
(assert (= "Z" (str.at var34 724)))
(assert (= ";" (str.at var57 682)))
(assert (= "J" (str.at var37 893)))
(assert (= "o" (str.at var14 13)))
(assert (= "2" (str.at var22 254)))
(assert (= "(" (str.at var7 709)))
(assert (= "o" (str.at var43 819)))
(assert (= "S" (str.at var1 871)))
(assert (= """" (str.at var45 542)))
(assert (= "w" (str.at var40 554)))
(assert (= "R" (str.at var50 313)))
(assert (= "R" (str.at var23 771)))
(assert (= "M" (str.at var12 921)))
(assert (= "!" (str.at var43 163)))
(assert (= "4" (str.at var48 448)))
(assert (= "1" (str.at var11 79)))
(assert (= "0" (str.at var6 587)))
(assert (= "=" (str.at var41 820)))
(assert (= ";" (str.at var54 155)))
(assert (= "j" (str.at var28 28)))
(assert (= "h" (str.at var58 11)))
(assert (= "z" (str.at var31 539)))
(assert (= "_" (str.at var41 309)))
(assert (= "-" (str.at var6 466)))
(assert (= "E" (str.at var15 16)))
(assert (= "'" (str.at var25 292)))
(assert (= "p" (str.at var4 810)))
(assert (= ";" (str.at var8 558)))
(assert (= "[" (str.at var22 127)))
(assert (= "F" (str.at var41 283)))
(assert (= "-" (str.at var18 996)))
(assert (= "p" (str.at var46 495)))
(assert (= "V" (str.at var25 141)))
(assert (= "l" (str.at var9 572)))
(assert (= "y" (str.at var14 458)))
(assert (= "y" (str.at var30 171)))
(assert (= "e" (str.at var19 925)))
(assert (= "r" (str.at var47 206)))
(assert (= ";" (str.at var6 513)))
(assert (= ")" (str.at var30 265)))
(assert (= "k" (str.at var28 76)))
(assert (= "s" (str.at var17 581)))
(assert (= "}" (str.at var42 525)))
(assert (= "&" (str.at var32 70)))
(assert (= "O" (str.at var23 766)))
(assert (= "!" (str.at var59 271)))
(assert (= "C" (str.at var20 642)))
(assert (= "=" (str.at var50 81)))
(assert (= "a" (str.at var29 888)))
(assert (= "-" (str.at var18 979)))
(assert (= "Y" (str.at var13 520)))
(assert (= "z" (str.at var50 346)))
(assert (= "." (str.at var34 972)))
(assert (= "9" (str.at var42 933)))
(assert (= "9" (str.at var9 542)))
(assert (= "n" (str.at var19 448)))
(assert (= "v" (str.at var14 978)))
(assert (= "C" (str.at var53 783)))
(assert (= "H" (str.at var13 721)))
(assert (= ";" (str.at var36 305)))
(assert (= "I" (str.at var9 189)))
(assert (= "q" (str.at var1 134)))
(assert (= "|" (str.at var54 733)))
(assert (= "J" (str.at var10 942)))
(assert (= "d" (str.at var49 319)))
(assert (= "m" (str.at var60 187)))
(assert (= ":" (str.at var54 582)))
(assert (= "h" (str.at var12 145)))
(assert (= "|" (str.at var53 229)))
(assert (= "#" (str.at var31 261)))
(assert (= "/" (str.at var21 241)))
(assert (= ">" (str.at var2 336)))
(assert (= "V" (str.at var2 293)))
(assert (= "f" (str.at var16 53)))
(assert (= ">" (str.at var26 548)))
(assert (= "U" (str.at var37 551)))
(assert (= "q" (str.at var36 39)))
(assert (= "N" (str.at var49 406)))
(assert (= "r" (str.at var56 771)))
(assert (= "," (str.at var6 791)))
(assert (= "." (str.at var36 73)))
(assert (= "N" (str.at var31 213)))
(assert (= "=" (str.at var6 138)))
(assert (= "U" (str.at var0 783)))
(assert (= "_" (str.at var52 609)))
(assert (= "T" (str.at var12 343)))
(assert (= "w" (str.at var30 925)))
(assert (= "<" (str.at var33 136)))
(assert (= "\\" (str.at var26 29)))
(assert (= "v" (str.at var16 776)))
(assert (= "t" (str.at var26 52)))
(assert (= "=" (str.at var12 910)))
(assert (= "P" (str.at var48 413)))
(assert (= "M" (str.at var28 636)))
(assert (= "h" (str.at var0 666)))
(assert (= "Y" (str.at var54 856)))
(assert (= "w" (str.at var54 948)))
(assert (= "r" (str.at var40 475)))
(assert (= "M" (str.at var59 630)))
(assert (= "z" (str.at var10 857)))
(assert (= "t" (str.at var9 916)))
(assert (= "q" (str.at var59 132)))
(assert (= "}" (str.at var60 996)))
(assert (= "E" (str.at var46 273)))
(assert (= "$" (str.at var16 501)))
(assert (= ";" (str.at var56 356)))
(assert (= "r" (str.at var28 177)))
(assert (= "/" (str.at var28 51)))
(assert (= "S" (str.at var21 951)))
(assert (= "Z" (str.at var6 967)))
(assert (= "," (str.at var49 886)))
(assert (= "u" (str.at var4 813)))
(assert (= "o" (str.at var0 484)))
(assert (= "N" (str.at var39 176)))
(assert (= ">" (str.at var35 302)))
(assert (= "R" (str.at var21 589)))
(assert (= "E" (str.at var52 75)))
(assert (= "F" (str.at var58 403)))
(assert (= "N" (str.at var23 204)))
(assert (= "-" (str.at var26 928)))
(assert (= "_" (str.at var0 827)))
(assert (= "," (str.at var30 239)))
(assert (= "U" (str.at var22 837)))
(assert (= "6" (str.at var53 392)))
(assert (= "N" (str.at var5 68)))
(assert (= "$" (str.at var24 919)))
(assert (= "c" (str.at var48 110)))
(assert (= "<" (str.at var22 776)))
(assert (= "H" (str.at var40 513)))
(assert (= "r" (str.at var26 474)))
(assert (= "+" (str.at var36 329)))
(assert (= "Q" (str.at var42 990)))
(assert (= "9" (str.at var52 450)))
(assert (= "'" (str.at var43 820)))
(assert (= "}" (str.at var60 412)))
(assert (= "D" (str.at var34 466)))
(assert (= "<" (str.at var54 324)))
(assert (= ";" (str.at var46 90)))
(assert (= "t" (str.at var16 888)))
(assert (= "5" (str.at var43 852)))
(assert (= "T" (str.at var25 789)))
(assert (= "S" (str.at var47 585)))
(assert (= "A" (str.at var39 828)))
(assert (= "r" (str.at var60 450)))
(assert (= "v" (str.at var57 630)))
(assert (= "|" (str.at var9 350)))
(assert (= "%" (str.at var43 621)))
(assert (= "G" (str.at var46 89)))
(assert (= "$" (str.at var26 774)))
(assert (= "n" (str.at var37 908)))
(assert (= "u" (str.at var33 498)))
(assert (= "]" (str.at var18 906)))
(assert (= "a" (str.at var11 728)))
(assert (= "*" (str.at var21 37)))
(assert (= "=" (str.at var15 192)))
(assert (= "z" (str.at var40 940)))
(assert (= "j" (str.at var50 156)))
(assert (= "6" (str.at var42 112)))
(assert (= "<" (str.at var12 284)))
(assert (= "{" (str.at var55 185)))
(assert (= "f" (str.at var16 458)))
(assert (= "|" (str.at var5 550)))
(assert (= "S" (str.at var10 96)))
(assert (= "E" (str.at var37 511)))
(assert (= "-" (str.at var7 882)))
(assert (= "M" (str.at var38 896)))
(assert (= "D" (str.at var3 230)))
(assert (= "J" (str.at var47 807)))
(assert (= "m" (str.at var15 408)))
(assert (= """" (str.at var45 64)))
(assert (= "I" (str.at var57 655)))
(assert (= "O" (str.at var45 279)))
(assert (= "'" (str.at var43 934)))
(assert (= "I" (str.at var22 558)))
(assert (= "$" (str.at var25 979)))
(assert (= "|" (str.at var46 242)))
(assert (= "w" (str.at var45 360)))
(assert (= "S" (str.at var25 244)))
(assert (= "$" (str.at var27 717)))
(assert (= "3" (str.at var23 243)))
(assert (= "S" (str.at var28 712)))
(assert (= "K" (str.at var36 708)))
(assert (= "p" (str.at var5 312)))
(assert (= "U" (str.at var33 790)))
(assert (= "1" (str.at var52 856)))
(assert (= "I" (str.at var12 810)))
(assert (= "k" (str.at var44 696)))
(assert (= "M" (str.at var50 608)))
(assert (= "r" (str.at var35 232)))
(assert (= "t" (str.at var27 870)))
(assert (= "<" (str.at var48 741)))
(assert (= "m" (str.at var17 214)))
(assert (= "<" (str.at var38 111)))
(assert (= "X" (str.at var47 55)))
(assert (= "h" (str.at var2 688)))
(assert (= "A" (str.at var3 14)))
(assert (= "r" (str.at var0 152)))
(assert (= "W" (str.at var37 650)))
(assert (= """" (str.at var48 87)))
(assert (= "X" (str.at var10 936)))
(assert (= "t" (str.at var35 389)))
(assert (= "/" (str.at var6 412)))
(assert (= "!" (str.at var7 404)))
(assert (= "5" (str.at var33 276)))
(assert (= "v" (str.at var48 457)))
(assert (= "s" (str.at var9 859)))
(assert (= "a" (str.at var32 979)))
(assert (= "u" (str.at var56 66)))
(assert (= "D" (str.at var5 99)))
(assert (= "R" (str.at var36 849)))
(assert (= "5" (str.at var60 473)))
(assert (= "&" (str.at var40 897)))
(assert (= "6" (str.at var46 882)))
(assert (= "9" (str.at var13 669)))
(assert (= "c" (str.at var33 820)))
(assert (= "+" (str.at var12 18)))
(assert (= "}" (str.at var13 457)))
(assert (= "r" (str.at var54 758)))
(assert (= "O" (str.at var10 524)))
(assert (= "D" (str.at var53 357)))
(assert (= "B" (str.at var32 137)))
(assert (= "E" (str.at var33 794)))
(assert (= "C" (str.at var44 76)))
(assert (= "2" (str.at var34 665)))
(assert (= "e" (str.at var25 440)))
(assert (= "E" (str.at var56 209)))
(assert (= "1" (str.at var13 5)))
(assert (= "b" (str.at var24 77)))
(assert (= "-" (str.at var22 463)))
(assert (= ">" (str.at var1 157)))
(assert (= "l" (str.at var40 703)))
(assert (= "W" (str.at var17 434)))
(assert (= "~" (str.at var52 373)))
(assert (= "W" (str.at var59 606)))
(assert (= "@" (str.at var7 843)))
(assert (= "e" (str.at var7 520)))
(assert (= "5" (str.at var23 561)))
(assert (= "|" (str.at var2 540)))
(assert (= "%" (str.at var18 140)))
(assert (= "^" (str.at var6 920)))
(assert (= "q" (str.at var28 63)))
(assert (= "P" (str.at var3 310)))
(assert (= "+" (str.at var12 460)))
(assert (= "|" (str.at var41 408)))
(assert (= "r" (str.at var14 882)))
(assert (= "d" (str.at var47 873)))
(assert (= "_" (str.at var1 341)))
(assert (= "o" (str.at var54 349)))
(assert (= "," (str.at var52 516)))
(assert (= "b" (str.at var49 692)))
(assert (= "R" (str.at var11 106)))
(assert (= "r" (str.at var17 987)))
(assert (= "g" (str.at var15 89)))
(assert (= "W" (str.at var11 590)))
(assert (= "=" (str.at var50 129)))
(assert (= "q" (str.at var3 26)))
(assert (= "@" (str.at var5 624)))
(assert (= "^" (str.at var4 761)))
(assert (= "[" (str.at var58 753)))
(assert (= "B" (str.at var50 27)))
(assert (= "\\" (str.at var21 183)))
(assert (= "!" (str.at var40 551)))
(assert (= "d" (str.at var60 530)))
(assert (= "a" (str.at var13 460)))
(assert (= "=" (str.at var25 425)))
(assert (= ":" (str.at var37 467)))
(assert (= "u" (str.at var12 341)))
(assert (= "u" (str.at var35 547)))
(assert (= "4" (str.at var6 29)))
(assert (= "A" (str.at var1 885)))
(assert (= "h" (str.at var51 329)))
(assert (= "9" (str.at var57 696)))
(assert (= "A" (str.at var51 20)))
(assert (= "~" (str.at var11 407)))
(assert (= "/" (str.at var23 521)))
(assert (= "x" (str.at var44 465)))
(assert (= "i" (str.at var28 557)))
(assert (= "~" (str.at var35 552)))
(assert (= "^" (str.at var52 868)))
(assert (= "I" (str.at var46 680)))
(assert (= "~" (str.at var39 51)))
(assert (= "~" (str.at var47 734)))
(assert (= "`" (str.at var50 975)))
(assert (= "!" (str.at var59 1000)))
(assert (= ">" (str.at var23 315)))
(assert (= "K" (str.at var60 296)))
(assert (= "e" (str.at var1 440)))
(assert (= "~" (str.at var39 103)))
(assert (= ":" (str.at var28 551)))
(assert (= "y" (str.at var4 243)))
(assert (= "f" (str.at var15 770)))
(assert (= "n" (str.at var40 472)))
(assert (= "4" (str.at var34 967)))
(assert (= "@" (str.at var47 14)))
(assert (= "a" (str.at var6 36)))
(assert (= "b" (str.at var0 444)))
(assert (= "q" (str.at var3 33)))
(assert (= "X" (str.at var13 770)))
(assert (= "-" (str.at var41 590)))
(assert (= "!" (str.at var11 791)))
(assert (= "G" (str.at var57 616)))
(assert (= "|" (str.at var41 799)))
(assert (= "s" (str.at var30 215)))
(assert (= "N" (str.at var28 462)))
(assert (= "z" (str.at var2 136)))
(assert (= "W" (str.at var16 804)))
(assert (= "!" (str.at var10 808)))
(assert (= "t" (str.at var47 506)))
(assert (= "D" (str.at var44 627)))
(assert (= "f" (str.at var59 87)))
(assert (= "7" (str.at var14 892)))
(assert (= "c" (str.at var58 311)))
(assert (= "X" (str.at var55 531)))
(assert (= "6" (str.at var52 532)))
(assert (= "'" (str.at var44 423)))
(assert (= "=" (str.at var58 27)))
(assert (= "1" (str.at var22 551)))
(assert (= ")" (str.at var5 162)))
(assert (= "R" (str.at var54 401)))
(assert (= "'" (str.at var42 569)))
(assert (= "Y" (str.at var57 615)))
(assert (= "l" (str.at var37 356)))
(assert (= "6" (str.at var51 773)))
(assert (= "y" (str.at var48 587)))
(assert (= "<" (str.at var31 166)))
(assert (= "{" (str.at var56 7)))
(assert (= "d" (str.at var3 467)))
(assert (= "c" (str.at var17 536)))
(assert (= "|" (str.at var55 564)))
(assert (= "c" (str.at var26 655)))
(assert (= "C" (str.at var19 896)))
(assert (= "i" (str.at var48 433)))
(assert (= "{" (str.at var7 789)))
(assert (= "`" (str.at var22 915)))
(assert (= "R" (str.at var7 752)))
(assert (= "*" (str.at var16 950)))
(assert (= "i" (str.at var16 739)))
(assert (= "3" (str.at var5 852)))
(assert (= "8" (str.at var51 776)))
(assert (= "%" (str.at var39 5)))
(assert (= "!" (str.at var46 169)))
(assert (= "r" (str.at var40 252)))
(assert (= "~" (str.at var59 503)))
(assert (= "Y" (str.at var54 606)))
(assert (= "?" (str.at var42 266)))
(assert (= "A" (str.at var31 203)))
(assert (= "2" (str.at var9 927)))
(assert (= "~" (str.at var47 603)))
(assert (= "7" (str.at var42 825)))
(assert (= "F" (str.at var11 770)))
(assert (= "[" (str.at var45 196)))
(assert (= "k" (str.at var15 334)))
(assert (= "L" (str.at var3 710)))
(assert (= "$" (str.at var42 155)))
(assert (= "-" (str.at var16 335)))
(assert (= "P" (str.at var48 489)))
(assert (= "q" (str.at var30 577)))
(assert (= "I" (str.at var5 142)))
(assert (= "C" (str.at var9 656)))
(assert (= "/" (str.at var35 405)))
(assert (= "u" (str.at var32 793)))
(assert (= "[" (str.at var17 970)))
(assert (= "b" (str.at var55 576)))
(assert (= "S" (str.at var13 368)))
(assert (= "i" (str.at var1 286)))
(assert (= "W" (str.at var26 857)))
(assert (= "u" (str.at var5 489)))
(assert (= "N" (str.at var12 646)))
(assert (= "~" (str.at var14 272)))
(assert (= "q" (str.at var7 545)))
(assert (= "!" (str.at var35 352)))
(assert (= "N" (str.at var28 250)))
(assert (= "n" (str.at var26 686)))
(assert (= "P" (str.at var48 747)))
(assert (= "@" (str.at var37 134)))
(assert (= "`" (str.at var43 518)))
(assert (= "&" (str.at var2 938)))
(assert (= ":" (str.at var18 289)))
(assert (= "[" (str.at var18 988)))
(assert (= "(" (str.at var56 432)))
(assert (= "'" (str.at var58 586)))
(assert (= "=" (str.at var10 880)))
(assert (= "[" (str.at var33 410)))
(assert (= ":" (str.at var8 809)))
(assert (= "N" (str.at var15 791)))
(assert (= "%" (str.at var9 201)))
(assert (= "V" (str.at var9 287)))
(assert (= "d" (str.at var5 814)))
(assert (= "p" (str.at var4 528)))
(assert (= "Y" (str.at var24 314)))
(assert (= "Z" (str.at var29 880)))
(assert (= "M" (str.at var34 421)))
(assert (= "i" (str.at var13 628)))
(assert (= ":" (str.at var14 722)))
(assert (= "," (str.at var19 841)))
(assert (= "." (str.at var16 736)))
(assert (= "^" (str.at var1 331)))
(assert (= """" (str.at var18 632)))
(assert (= "n" (str.at var43 713)))
(assert (= "[" (str.at var56 278)))
(assert (= "J" (str.at var14 247)))
(assert (= "z" (str.at var3 623)))
(assert (= "g" (str.at var38 105)))
(assert (= "G" (str.at var60 340)))
(assert (= "[" (str.at var1 715)))
(assert (= """" (str.at var31 992)))
(assert (= "7" (str.at var27 484)))
(assert (= "s" (str.at var18 844)))
(assert (= "y" (str.at var59 408)))
(assert (= "B" (str.at var22 185)))
(assert (= "9" (str.at var36 136)))
(assert (= "q" (str.at var6 699)))
(assert (= "z" (str.at var10 940)))
(assert (= "O" (str.at var22 731)))
(assert (= "c" (str.at var34 153)))
(assert (= "L" (str.at var28 424)))
(assert (= "!" (str.at var15 405)))
(assert (= "c" (str.at var21 991)))
(assert (= "K" (str.at var16 354)))
(assert (= "w" (str.at var48 57)))
(assert (= "." (str.at var1 653)))
(assert (= "I" (str.at var14 671)))
(assert (= "t" (str.at var2 38)))
(assert (= "q" (str.at var15 484)))
(assert (= ")" (str.at var43 487)))
(assert (= "r" (str.at var60 739)))
(assert (= ";" (str.at var54 599)))
(assert (= "x" (str.at var7 65)))
(assert (= ">" (str.at var55 86)))
(assert (= "W" (str.at var6 215)))
(assert (= "A" (str.at var49 277)))
(assert (= "." (str.at var19 90)))
(assert (= "!" (str.at var19 608)))
(assert (= "i" (str.at var0 824)))
(assert (= "6" (str.at var20 139)))
(assert (= "S" (str.at var26 354)))
(assert (= """" (str.at var14 627)))
(assert (= "2" (str.at var4 51)))
(assert (= "F" (str.at var27 712)))
(check-sat)